85068.61
35 37 38 39 40 42 41 43 44 45 46 47 48 49 50 51 52 53 54 55 56 57 58 59 60 61 62 63 64 65 66 67 68 69 70 71 72 73 74 75 76 77 78 79 80 81 82 83 84 85 86 87 88 89 90 91 92 93 94 95 96 97 98 99 100 101 102 103 105 107 109 111 112 110 108 106 104 11 18 16 17 10 9 8 7 15 19 21 22 20 13 14 12 6 5 222 4 3 221 220 219 2 1 0 218 216 225 224 223 217 215 178 182 181 180 125 183 184 185 187 189 191 193 195 197 198 196 194 192 190 188 186 113 114 115 116 117 118 120 119 121 122 126 127 123 124 128 179 129 130 131 177 132 163 165 167 169 171 173 175 176 174 172 170 168 166 164 162 133 134 135 136 137 138 140 139 141 142 146 147 143 144 145 161 160 157 158 159 155 156 148 149 150 151 154 152 153 199 207 208 201 200 202 209 210 211 212 203 204 213 205 206 214 23 24 30 32 31 33 25 26 27 28 29 36 34